NAME : portcgen-24-21
COMMENT : portcgen N=24, seed=21
TYPE : TSP
DIMENSION : 24
EDGE_WEIGHT_TYPE : EUC_2D
NODE_COORD_SECTION
1 -137948 100789
2 -137806 194974
3 31414 186613
4 10296 137233
5 59623 -70269
6 -229093 307547
7 136405 -49120
8 -134051 138820
9 -53117 45824
10 142393 258342
11 144725 -430778
12 85093 -63635
13 181135 -506696
14 248544 -140928
15 547822 274483
16 324623 -110810
17 305573 19288
18 -318296 -72728
19 80407 -2213
20 -239654 82617
21 -76630 -65936
22 308748 220679
23 -91449 -339110
24 174496 -55610
